language ESSENCE' 1.0
$ Minion SolverNodes: 107
$ Minion SolverTotalTime: 0.064723
$ Minion SolverTimeOut: 0
$ Savile Row TotalTime: 0.254
letting actionAmount be [5, 3, 3, 3, 3, 2, 5, 1, 3]
letting actionFrom be [1, 1, 3, 2, 3, 2, 1, 2, 3]
letting actionTo be [2, 3, 1, 3, 1, 3, 2, 3, 1]
letting stateBuckets be [[8, 3, 0, 3, 3, 6, 6, 1, 1, 4;int(0..9)], 
[0, 5, 5, 5, 2, 2, 0, 5, 4, 4;int(0..9)], 
[0, 0, 3, 0, 3, 0, 2, 2, 3, 0;int(0..9)]]
